solution status: optimal solution found
objective value:                                    0
one.thingy.devices[3].thingy.vs0_y                   17 	(obj:0)
one.thingy.devices[3].thingy.vs0_z                   15 	(obj:0)
one.thingy.devices[0].thingy.vs0_y                   22 	(obj:0)
one.thingy.devices[0].thingy.vs0_z                   22 	(obj:0)
$_20__5_y                                          -9 	(obj:0)
$_20__5_z                                          25 	(obj:0)
one.thingy.devices[1].thingy.vs0_y                   21 	(obj:0)
one.thingy.devices[1].thingy.vs0_z                   19 	(obj:0)
$_25__5_y                                          17 	(obj:0)
$_25__5_z                                          16 	(obj:0)
$_23__5_y                                          24 	(obj:0)
$_23__5_z                                          19 	(obj:0)
$_22__5_y                                          24 	(obj:0)
$_22__5_z                                          20 	(obj:0)
$_18__5_y                                          24 	(obj:0)
$_18__5_z                                           7 	(obj:0)
$_24__5_y                                          22 	(obj:0)
$_24__5_z                                          24 	(obj:0)
one.thingy.devices[2].thingy.vs0_y                   21 	(obj:0)
one.thingy.devices[2].thingy.vs0_z                   18 	(obj:0)
$_19__5_y                                          24 	(obj:0)
$_19__5_z                                          21 	(obj:0)
$_21__5_y                                          24 	(obj:0)
$_21__5_z                                          15 	(obj:0)
